; PUSH 0x00 DUP3 DUP2 NOT AND => PUSH 0x00 DUP3
(set-option :produce-proofs true)
; 
(set-info :status unknown)
(declare-fun storage_t ((_ BitVec 256) (_ BitVec 256) Int (_ BitVec 256)) (_ BitVec 256))
(declare-fun storage_s ((_ BitVec 256) (_ BitVec 256) Int (_ BitVec 256)) (_ BitVec 256))
(declare-fun exc_halt_t (Int) Bool)
(declare-fun exc_halt_s (Int) Bool)
(declare-fun stack_t ((_ BitVec 256) (_ BitVec 256) Int (_ BitVec 6)) (_ BitVec 256))
(declare-fun stack_s ((_ BitVec 256) (_ BitVec 256) Int (_ BitVec 6)) (_ BitVec 256))
(declare-fun sc_t (Int) (_ BitVec 6))
(declare-fun sc_s (Int) (_ BitVec 6))
(declare-fun used_gas_t ((_ BitVec 256) (_ BitVec 256) Int) Int)
(declare-fun used_gas_s ((_ BitVec 256) (_ BitVec 256) Int) Int)
(assert
 (exists ((x_0 (_ BitVec 256)) (x_1 (_ BitVec 256)) )(let (($x10836 (forall ((w (_ BitVec 256)) )(let ((?x380 (storage_t x_0 x_1 2 w)))
 (let ((?x3079 (storage_s x_0 x_1 5 w)))
 (= ?x3079 ?x380))))
 ))
 (let (($x903 (exc_halt_t 2)))
 (let (($x3979 (exc_halt_s 5)))
 (let (($x10462 (= $x3979 $x903)))
 (let (($x10987 (forall ((n (_ BitVec 6)) )(let ((?x105 (stack_t x_0 x_1 2 n)))
 (let ((?x5664 (stack_s x_0 x_1 5 n)))
 (let (($x10838 (= ?x5664 ?x105)))
 (let ((?x4056 (sc_t 2)))
 (let (($x8656 (bvsle ?x4056 n)))
 (or $x8656 $x10838)))))))
 ))
 (let ((?x4056 (sc_t 2)))
 (let ((?x805 (sc_s 5)))
 (let (($x10723 (= ?x805 ?x4056)))
 (let ((?x4989 (used_gas_t x_0 x_1 0)))
 (let ((?x4976 (used_gas_s x_0 x_1 0)))
 (let (($x4947 (= ?x4976 ?x4989)))
 (let (($x4907 (forall ((w (_ BitVec 256)) )(let ((?x4937 (storage_t x_0 x_1 0 w)))
 (let ((?x4923 (storage_s x_0 x_1 0 w)))
 (= ?x4923 ?x4937))))
 ))
 (let (($x56 (exc_halt_t 0)))
 (let (($x57 (exc_halt_s 0)))
 (let (($x58 (= $x57 $x56)))
 (let (($x10578 (forall ((n (_ BitVec 6)) )(let ((?x63 (sc_t 0)))
 (let (($x7266 (bvsle ?x63 n)))
 (let ((?x4906 (stack_t x_0 x_1 0 n)))
 (let ((?x4920 (stack_s x_0 x_1 0 n)))
 (let (($x4653 (= ?x4920 ?x4906)))
 (or $x4653 $x7266)))))))
 ))
 (let ((?x63 (sc_t 0)))
 (let ((?x72 (sc_s 0)))
 (let (($x73 (= ?x72 ?x63)))
 (let (($x1920 (exc_halt_t 1)))
 (let (($x1881 (not (= ((_ extract 6 6) (bvadd (_ bv1 7) (concat (_ bv0 1) (sc_t 1)))) (_ bv0 1)))))
 (let (($x3676 (= $x903 (or $x1881 $x1920 (not (bvsle (_ bv0 6) (bvadd (_ bv61 6) (sc_t 1))))))))
 (let (($x9367 (forall ((w (_ BitVec 256)) )(let ((?x401 (storage_t x_0 x_1 1 w)))
 (let ((?x380 (storage_t x_0 x_1 2 w)))
 (= ?x380 ?x401))))
 ))
 (let (($x10983 (forall ((n (_ BitVec 6)) )(let ((?x4023 (sc_t 1)))
 (let ((?x7560 (bvadd (_ bv61 6) ?x4023)))
 (let (($x6011 (bvsle ?x7560 n)))
 (let ((?x391 (stack_t x_0 x_1 1 n)))
 (let ((?x105 (stack_t x_0 x_1 2 n)))
 (let (($x5818 (= ?x105 ?x391)))
 (or $x5818 $x6011))))))))
 ))
 (let (($x2343 (= ?x4056 (bvadd (_ bv1 6) (sc_t 1)))))
 (let ((?x403 (used_gas_t x_0 x_1 2)))
 (let (($x2046 (= ?x403 (+ 3 (used_gas_t x_0 x_1 1)))))
 (let ((?x4023 (sc_t 1)))
 (let ((?x3198 (bvadd (_ bv63 6) ?x4023)))
 (let ((?x1934 (stack_t x_0 x_1 1 ?x3198)))
 (let (($x1771 (= (stack_t x_0 x_1 2 ?x3198) ?x1934)))
 (let ((?x2292 (bvadd (_ bv62 6) ?x4023)))
 (let ((?x6637 (stack_t x_0 x_1 1 ?x2292)))
 (let (($x9361 (= (stack_t x_0 x_1 2 ?x2292) ?x6637)))
 (let ((?x7560 (bvadd (_ bv61 6) ?x4023)))
 (let ((?x10975 (stack_t x_0 x_1 1 ?x7560)))
 (let (($x3239 (= $x1920 (or $x56 (not (= ((_ extract 6 6) (bvadd (_ bv1 7) (concat (_ bv0 1) ?x63))) (_ bv0 1)))))))
 (let (($x511 (forall ((w (_ BitVec 256)) )(let ((?x4937 (storage_t x_0 x_1 0 w)))
 (let ((?x401 (storage_t x_0 x_1 1 w)))
 (= ?x401 ?x4937))))
 ))
 (let (($x10973 (forall ((n (_ BitVec 6)) )(let ((?x63 (sc_t 0)))
 (let (($x7266 (bvsle ?x63 n)))
 (let ((?x4906 (stack_t x_0 x_1 0 n)))
 (let ((?x391 (stack_t x_0 x_1 1 n)))
 (let (($x3853 (= ?x391 ?x4906)))
 (or $x3853 $x7266)))))))
 ))
 (let (($x9398 (= ?x4023 (bvadd (_ bv1 6) ?x63))))
 (let ((?x5103 (used_gas_t x_0 x_1 1)))
 (let (($x573 (= ?x5103 (+ 3 ?x4989))))
 (let (($x2968 (= $x3979 (or (exc_halt_s 4) (not (bvsle (_ bv0 6) (bvadd (_ bv62 6) (sc_s 4))))))))
 (let (($x10339 (forall ((w (_ BitVec 256)) )(let ((?x8837 (storage_s x_0 x_1 4 w)))
 (let ((?x3079 (storage_s x_0 x_1 5 w)))
 (= ?x3079 ?x8837))))
 ))
 (let (($x10969 (forall ((n (_ BitVec 6)) )(let ((?x215 (stack_s x_0 x_1 4 n)))
 (let ((?x5664 (stack_s x_0 x_1 5 n)))
 (let (($x10468 (= ?x5664 ?x215)))
 (let ((?x4305 (sc_s 4)))
 (let ((?x3433 (bvadd (_ bv62 6) ?x4305)))
 (let (($x3366 (bvsle ?x3433 n)))
 (or $x3366 $x10468))))))))
 ))
 (let ((?x4305 (sc_s 4)))
 (let ((?x477 (bvadd (_ bv63 6) ?x4305)))
 (let (($x1899 (= ?x805 ?x477)))
 (let (($x10475 (= (used_gas_s x_0 x_1 5) (+ 3 (used_gas_s x_0 x_1 4)))))
 (let ((?x10964 (bvor (bvnot (stack_s x_0 x_1 4 ?x477)) (bvnot (stack_s x_0 x_1 4 (bvadd (_ bv62 6) ?x4305))))))
 (let ((?x6858 (bvadd (_ bv63 6) ?x805)))
 (let ((?x10594 (stack_s x_0 x_1 5 ?x6858)))
 (let (($x64 (exc_halt_s 4)))
 (let (($x460 (= $x64 (or (exc_halt_s 3) (not (bvsle (_ bv0 6) (bvadd (_ bv63 6) (sc_s 3))))))))
 (let (($x4055 (forall ((w (_ BitVec 256)) )(let ((?x2779 (storage_s x_0 x_1 3 w)))
 (let ((?x8837 (storage_s x_0 x_1 4 w)))
 (= ?x8837 ?x2779))))
 ))
 (let (($x10960 (forall ((n (_ BitVec 6)) )(let ((?x468 (stack_s x_0 x_1 3 n)))
 (let ((?x215 (stack_s x_0 x_1 4 n)))
 (let (($x8030 (= ?x215 ?x468)))
 (let ((?x275 (sc_s 3)))
 (let ((?x9061 (bvadd (_ bv63 6) ?x275)))
 (let (($x847 (bvsle ?x9061 n)))
 (or $x847 $x8030))))))))
 ))
 (let ((?x275 (sc_s 3)))
 (let (($x2547 (= ?x4305 ?x275)))
 (let ((?x48 (used_gas_s x_0 x_1 4)))
 (let (($x583 (= ?x48 (+ 3 (used_gas_s x_0 x_1 3)))))
 (let ((?x10403 (stack_s x_0 x_1 4 ?x477)))
 (let (($x7584 (not (= ((_ extract 6 6) (bvadd (_ bv1 7) (concat (_ bv0 1) (sc_s 2)))) (_ bv0 1)))))
 (let (($x247 (exc_halt_s 2)))
 (let (($x292 (exc_halt_s 3)))
 (let (($x8375 (= $x292 (or $x247 $x7584 (not (bvsle (_ bv0 6) (bvadd (_ bv62 6) (sc_s 2))))))))
 (let (($x4933 (forall ((w (_ BitVec 256)) )(let ((?x6060 (storage_s x_0 x_1 2 w)))
 (let ((?x2779 (storage_s x_0 x_1 3 w)))
 (= ?x2779 ?x6060))))
 ))
 (let (($x10954 (forall ((n (_ BitVec 6)) )(let ((?x218 (sc_s 2)))
 (let ((?x2611 (bvadd (_ bv62 6) ?x218)))
 (let (($x5194 (bvsle ?x2611 n)))
 (let ((?x6126 (stack_s x_0 x_1 2 n)))
 (let ((?x468 (stack_s x_0 x_1 3 n)))
 (let (($x201 (= ?x468 ?x6126)))
 (or $x201 $x5194))))))))
 ))
 (let (($x9283 (= ?x275 (bvadd (_ bv1 6) (sc_s 2)))))
 (let ((?x5156 (used_gas_s x_0 x_1 3)))
 (let (($x213 (= ?x5156 (+ 3 (used_gas_s x_0 x_1 2)))))
 (let ((?x218 (sc_s 2)))
 (let ((?x3563 (bvadd (_ bv63 6) ?x218)))
 (let ((?x9669 (stack_s x_0 x_1 2 ?x3563)))
 (let (($x10357 (= (stack_s x_0 x_1 3 ?x3563) ?x9669)))
 (let ((?x2611 (bvadd (_ bv62 6) ?x218)))
 (let ((?x10450 (stack_s x_0 x_1 2 ?x2611)))
 (let (($x10441 (= (stack_s x_0 x_1 3 ?x2611) ?x10450)))
 (let (($x8796 (not (= ((_ extract 6 6) (bvadd (_ bv1 7) (concat (_ bv0 1) (sc_s 1)))) (_ bv0 1)))))
 (let (($x1476 (not (bvsle (_ bv0 6) (bvadd (_ bv61 6) (sc_s 1))))))
 (let (($x189 (exc_halt_s 1)))
 (let (($x162 (forall ((w (_ BitVec 256)) )(let ((?x4682 (storage_s x_0 x_1 1 w)))
 (let ((?x6060 (storage_s x_0 x_1 2 w)))
 (= ?x6060 ?x4682))))
 ))
 (let (($x10946 (forall ((n (_ BitVec 6)) )(let ((?x9488 (stack_s x_0 x_1 1 n)))
 (let ((?x6126 (stack_s x_0 x_1 2 n)))
 (let (($x3237 (= ?x6126 ?x9488)))
 (let ((?x154 (sc_s 1)))
 (let ((?x7893 (bvadd (_ bv61 6) ?x154)))
 (let (($x2110 (bvsle ?x7893 n)))
 (or $x2110 $x3237))))))))
 ))
 (let (($x6573 (= ?x218 (bvadd (_ bv1 6) (sc_s 1)))))
 (let ((?x6177 (used_gas_s x_0 x_1 2)))
 (let (($x3258 (= ?x6177 (+ 3 (used_gas_s x_0 x_1 1)))))
 (let ((?x154 (sc_s 1)))
 (let ((?x3584 (bvadd (_ bv63 6) ?x154)))
 (let ((?x10401 (stack_s x_0 x_1 1 ?x3584)))
 (let (($x663 (= (stack_s x_0 x_1 2 ?x3584) ?x10401)))
 (let ((?x3271 (bvadd (_ bv62 6) ?x154)))
 (let ((?x10360 (stack_s x_0 x_1 1 ?x3271)))
 (let (($x10331 (= (stack_s x_0 x_1 2 ?x3271) ?x10360)))
 (let ((?x7893 (bvadd (_ bv61 6) ?x154)))
 (let ((?x10937 (stack_s x_0 x_1 1 ?x7893)))
 (let (($x7947 (= $x189 (or $x57 (not (= ((_ extract 6 6) (bvadd (_ bv1 7) (concat (_ bv0 1) ?x72))) (_ bv0 1)))))))
 (let (($x10372 (forall ((w (_ BitVec 256)) )(let ((?x4923 (storage_s x_0 x_1 0 w)))
 (let ((?x4682 (storage_s x_0 x_1 1 w)))
 (= ?x4682 ?x4923))))
 ))
 (let (($x10932 (forall ((n (_ BitVec 6)) )(let ((?x4920 (stack_s x_0 x_1 0 n)))
 (let ((?x9488 (stack_s x_0 x_1 1 n)))
 (let (($x10349 (= ?x9488 ?x4920)))
 (let ((?x72 (sc_s 0)))
 (let (($x8308 (bvsle ?x72 n)))
 (or $x8308 $x10349)))))))
 ))
 (let (($x3028 (= ?x154 (bvadd (_ bv1 6) ?x72))))
 (let ((?x10575 (used_gas_s x_0 x_1 1)))
 (let (($x10440 (= ?x10575 (+ 3 ?x4976))))
 (let (($x10418 (forall ((w (_ BitVec 256)) )(let ((?x4923 (storage_s x_0 x_1 0 w)))
 (= ?x4923 (_ bv0 256))))
 ))
 (let (($x10438 (= ?x4976 0)))
 (let (($x3253 (not $x57)))
 (let (($x3483 (= (stack_s x_0 x_1 0 (_ bv1 6)) x_1)))
 (let (($x3950 (= (stack_s x_0 x_1 0 (_ bv0 6)) x_0)))
 (let (($x9438 (= ?x72 (_ bv2 6))))
 (and $x9438 $x3950 $x3483 $x3253 $x10438 $x10418 (= (stack_s x_0 x_1 1 ?x72) (_ bv0 256)) $x10440 $x3028 $x10932 $x10372 $x7947 (= ?x9669 ?x10937) (= (stack_s x_0 x_1 2 ?x7893) ?x10937) $x10331 $x663 $x3258 $x6573 $x10946 $x162 (= $x247 (or $x189 $x1476 $x8796)) (= (stack_s x_0 x_1 3 (bvadd (_ bv63 6) ?x275)) ?x10450) $x10441 $x10357 $x213 $x9283 $x10954 $x4933 $x8375 (= ?x10403 (bvnot (stack_s x_0 x_1 3 (bvadd (_ bv63 6) ?x275)))) $x583 $x2547 $x10960 $x4055 $x460 (= ?x10594 (bvnot ?x10964)) $x10475 $x1899 $x10969 $x10339 $x2968 (= (stack_t x_0 x_1 1 ?x63) (_ bv0 256)) $x573 $x9398 $x10973 $x511 $x3239 (= (stack_t x_0 x_1 2 (bvadd (_ bv63 6) ?x4056)) ?x10975) (= (stack_t x_0 x_1 2 ?x7560) ?x10975) $x9361 $x1771 $x2046 $x2343 $x10983 $x9367 $x3676 $x73 $x10578 $x58 $x4907 $x4947 (not (and $x10723 $x10987 $x10462 $x10836))))))))))))))))))))))))))))))))))))))))))))))))))))))))))))))))))))))))))))))))))))))))))))))))))))))))))))))
 )
(check-sat)
(get-proof)
